50

99 16 300
97 25 416
97 4 311
96 14 435
95 3 326
89 7 283
88 19 369
83 21 402
81 16 354
81 3 356
79 23 242
77 11 271
76 7 417
75 6 397
74 8 254
61 7 276
55 5 376
51 4 279
50 10 392
50 1 351
48 7 213
48 13 340
47 13 312
46 11 409
45 3 435
42 10 285
42 11 309
38 10 304
35 4 247
34 6 438
32 8 406
32 8 373
31 2 339
26 8 448
25 4 137
21 3 432
14 2 60
13 4 139
11 4 419
10 1 213
9 2 83
9 1 443
9 3 190
8 2 427
8 1 377
7 1 127
5 1 263
5 1 95
5 1 201
1 1 376
